35
1 0 1
2 0 4
2 1 5
3 0 2
4 1 4
5 0 1
5 2 5
5 3 2
6 0 1
6 2 5
6 4 1
7 1 5
8 2 3
8 4 5
8 5 3
8 6 3
8 7 3
9 3 3
9 4 1
9 5 5
9 6 2
9 7 5
9 8 2
10 0 4
10 1 1
10 2 5
10 3 2
10 4 2
10 5 5
10 6 3
10 8 2
10 9 4
11 0 5
11 1 1
11 4 1
11 8 3
11 9 2
11 10 2
12 3 4
12 4 1
12 5 3
12 7 4
12 9 1
12 11 5
13 1 4
13 4 5
13 6 2
13 7 4
13 8 4
13 9 2
14 0 4
14 1 2
14 2 3
14 3 4
14 5 4
14 8 5
14 12 3
14 13 1
15 1 4
15 2 3
15 5 2
15 6 3
15 8 5
15 9 5
15 10 3
15 12 5
15 13 5
15 14 4
16 0 5
16 4 1
16 5 4
16 8 4
16 9 1
16 12 4
17 1 4
17 2 2
17 3 5
17 6 2
17 11 1
17 14 2
17 15 2
17 16 1
18 1 4
18 2 4
18 4 3
18 6 5
18 9 5
18 10 5
18 15 3
18 16 2
19 3 3
19 4 5
19 8 4
19 14 3
19 15 3
19 16 3
19 17 2
19 18 2
20 2 1
20 3 1
20 5 5
20 6 5
20 7 4
20 10 4
20 13 3
20 15 1
20 16 1
20 17 2
20 18 4
20 19 2
21 2 5
21 5 1
21 7 4
21 9 2
21 10 3
21 11 1
21 13 4
21 14 5
21 15 2
21 16 4
21 18 1
21 19 3
22 0 2
22 1 2
22 2 1
22 3 5
22 4 1
22 9 1
22 11 1
22 15 5
22 16 5
22 17 2
22 20 5
23 1 2
23 5 5
23 6 5
23 8 5
23 9 3
23 10 3
23 11 3
23 12 4
23 13 2
23 16 3
23 19 1
24 0 2
24 1 3
24 2 4
24 5 4
24 10 4
24 13 3
24 17 4
24 22 5
24 23 1
25 0 4
25 4 1
25 7 1
25 11 2
25 14 4
25 16 2
25 17 1
25 18 4
25 21 3
26 2 2
26 3 3
26 5 4
26 6 4
26 9 2
26 16 4
26 17 5
26 18 4
26 20 2
26 24 5
26 25 4
27 0 2
27 1 1
27 4 1
27 5 2
27 6 1
27 7 3
27 11 5
27 12 4
27 13 2
27 14 4
27 16 3
27 19 4
27 21 3
27 23 3
27 24 3
27 25 5
27 26 5
28 4 4
28 7 3
28 9 1
28 10 3
28 13 3
28 15 5
28 16 3
28 17 3
28 20 1
28 21 5
28 23 4
28 26 3
29 2 4
29 3 5
29 6 1
29 7 1
29 9 5
29 11 3
29 12 5
29 13 3
29 16 2
29 17 2
29 18 2
29 20 2
29 22 3
29 23 4
29 25 1
29 27 1
30 2 1
30 3 4
30 6 1
30 8 3
30 10 3
30 11 1
30 12 3
30 14 5
30 18 5
30 20 4
30 21 4
30 24 4
30 26 3
30 27 2
31 0 2
31 2 1
31 3 5
31 4 5
31 7 2
31 8 4
31 10 1
31 11 5
31 18 1
31 19 2
31 20 5
31 21 2
31 23 2
31 25 4
31 26 4
31 28 1
31 29 5
32 3 2
32 4 4
32 5 4
32 6 2
32 7 2
32 8 3
32 9 4
32 10 2
32 11 5
32 13 3
32 14 3
32 18 2
32 20 2
32 22 3
32 24 4
32 25 4
32 27 1
32 28 4
32 29 2
32 30 4
33 2 2
33 4 2
33 7 2
33 9 2
33 10 5
33 11 1
33 12 5
33 13 3
33 16 4
33 17 1
33 18 2
33 19 1
33 20 4
33 22 3
33 23 5
33 26 2
33 30 5
34 1 3
34 5 5
34 6 4
34 7 3
34 8 4
34 12 5
34 18 3
34 22 2
34 24 1
34 25 5
34 27 1
34 28 5
34 29 5
34 30 2
34 33 2
